HUN,8,6,904
4,29,5,21,1,28,2,21,0,28,3,26
2,21,4,23,5,28,0,26,1,25,3,25
0,24,5,21,2,23,3,21,4,26,1,27
0,24,1,24,5,30,2,30,4,29,3,22
0,24,3,30,2,30,1,26,4,27,5,27
2,29,0,21,1,24,4,21,5,26,3,26
3,29,2,30,1,29,0,29,4,30,5,25
3,24,2,22,1,27,0,27,4,30,5,23
